543 5
10 10 10 10 10 

0 0 0 0 0 0 5 2 14 26 38 50 
0 0 0 0 0 0 4 3 5 11 12 
6 0 1 0 0 0 3 10 9 4 
1 0 4 0 0 0 2 7 6 
8 0 1 0 0 0 1 8 
8 0 2 0 0 0 1 13 
8 0 3 0 0 0 1 13 
9 0 2 0 0 0 2 13 197 
4 0 3 0 0 0 1 13 
3 0 2 0 0 0 1 13 
6 0 2 0 0 0 1 13 
5 0 5 0 0 0 1 13 
0 0 0 0 0 0 1 62 
0 0 0 0 0 0 5 15 16 17 18 20 
10 0 0 0 1 0 3 22 21 19 
2 0 0 0 2 0 2 22 19 
5 0 0 0 1 0 2 24 21 
2 0 0 0 3 0 3 24 21 488 
10 0 0 0 2 0 2 24 23 
4 0 0 0 2 0 2 24 23 
8 0 0 0 4 0 1 23 
7 0 0 0 4 0 1 23 
9 0 0 0 2 0 1 25 
8 0 0 0 4 0 1 25 
0 0 0 0 0 0 1 62 
0 0 0 0 0 0 6 27 28 30 31 35 36 
10 1 0 0 0 0 2 34 32 
9 1 0 0 0 0 1 29 
3 4 0 0 0 0 1 32 
4 3 0 0 0 0 1 33 
9 1 0 0 0 0 1 32 
6 2 0 0 0 0 1 37 
1 3 0 0 0 0 1 37 
10 3 0 0 0 0 2 37 143 
7 4 0 0 0 0 1 37 
7 3 0 0 0 0 1 37 
0 0 0 0 0 0 1 62 
0 0 0 0 0 0 6 39 40 41 46 47 48 
6 1 0 0 0 0 4 45 44 43 517 
10 4 0 0 0 0 3 45 44 43 
4 1 0 0 0 0 2 44 42 
6 1 0 0 0 0 1 43 
4 3 0 0 0 0 1 49 
10 5 0 0 0 0 1 49 
8 3 0 0 0 0 1 49 
3 2 0 0 0 0 1 49 
4 3 0 0 0 0 1 49 
10 2 0 0 0 0 1 49 
0 0 0 0 0 0 1 62 
0 0 0 0 0 0 2 51 52 
5 1 0 0 0 0 2 60 54 
9 2 0 0 0 0 1 53 
5 5 0 0 0 0 6 60 59 58 57 56 55 
5 1 0 0 0 0 5 59 58 57 56 55 
4 4 0 0 0 0 1 61 
6 2 0 0 0 0 2 61 393 
1 3 0 0 0 0 1 61 
4 1 0 0 0 0 1 61 
7 1 0 0 0 0 1 61 
7 5 0 0 0 0 1 61 
0 0 0 0 0 0 1 62 
0 0 0 0 0 0 5 63 105 147 159 201 
0 0 0 0 0 0 5 64 67 69 70 73 
7 1 1 0 1 1 3 72 68 65 
8 3 2 0 1 3 2 76 66 
2 2 2 0 2 1 7 103 89 81 80 77 74 71 
4 1 1 0 5 3 6 103 89 81 80 77 71 
5 3 2 0 3 2 9 103 92 89 86 83 81 79 78 77 
8 3 1 0 3 2 8 92 91 90 88 84 83 75 72 
3 5 1 0 1 4 5 92 84 78 77 74 
8 3 1 0 2 5 8 92 91 90 88 86 84 83 75 
9 2 1 0 5 2 4 86 81 80 76 
2 1 3 0 4 1 5 93 89 88 84 81 
5 2 6 0 2 1 4 91 90 88 82 
10 2 4 0 3 3 4 97 95 93 82 
8 2 2 0 4 2 3 93 89 85 
6 3 5 0 4 6 2 90 82 
9 4 4 0 4 2 2 97 80 
8 2 2 0 2 1 3 96 91 88 
1 2 2 0 2 1 3 102 95 85 
9 2 3 0 4 1 3 102 97 85 
7 2 3 0 2 3 2 102 85 
10 3 4 0 1 2 2 102 85 
4 3 3 0 1 1 2 95 87 
7 3 3 0 4 2 1 87 
5 2 4 0 1 7 4 102 101 100 95 
9 2 2 0 1 1 3 101 96 94 
6 1 3 0 1 1 3 102 95 94 
8 3 2 0 3 2 3 96 95 94 
3 1 3 0 5 4 3 99 97 96 
5 2 2 0 3 4 3 99 93 244 
3 1 1 0 3 1 2 99 93 
2 2 1 0 2 3 3 102 101 98 
3 2 2 0 2 5 2 100 99 
1 4 2 0 1 1 2 99 98 
3 3 4 0 2 2 1 98 
9 5 4 0 1 3 1 100 
9 1 3 0 5 3 1 104 
9 5 2 0 2 1 1 104 
9 4 2 0 3 3 1 104 
10 2 2 0 1 4 1 104 
1 3 4 0 3 4 1 104 
6 3 1 0 1 2 1 104 
0 0 0 0 0 0 1 543 
0 0 0 0 0 0 5 106 110 111 112 115 
9 1 1 0 1 1 3 114 109 107 
10 2 1 0 1 4 2 116 108 
1 4 2 0 2 2 5 145 121 120 117 113 
6 3 1 0 2 3 9 145 134 130 126 124 122 121 120 119 
1 3 5 0 3 1 4 145 121 120 113 
1 3 3 0 1 1 9 134 130 127 126 124 122 121 118 117 
3 4 2 0 3 3 6 133 132 126 124 118 114 
9 4 4 0 3 3 10 134 133 132 130 128 127 126 124 123 118 
7 2 2 0 3 3 3 134 128 116 
2 3 2 0 3 1 5 133 128 127 126 120 
2 1 3 0 2 4 4 130 127 123 120 
7 2 1 0 1 1 4 133 132 128 125 
6 5 2 0 1 1 4 139 138 135 125 
10 1 5 0 1 2 4 133 131 128 127 
2 2 2 0 2 3 4 139 138 135 129 
3 2 2 0 5 5 2 132 125 
3 2 5 0 2 2 2 139 123 
6 3 4 0 1 2 3 144 138 129 
10 1 3 0 2 1 3 144 139 129 
2 2 1 0 4 3 2 144 129 
9 3 1 0 3 4 2 138 129 
8 1 5 0 4 2 5 144 142 138 137 136 
8 2 1 0 1 2 4 144 142 138 136 
10 2 2 0 2 3 1 131 
8 2 2 0 4 2 4 144 143 142 138 
7 5 2 0 2 3 4 142 137 136 434 
4 1 2 0 3 2 3 142 139 137 
4 1 2 0 3 3 2 143 135 
7 3 2 0 2 4 1 135 
6 7 2 0 4 3 4 144 142 141 140 
9 4 3 0 2 1 2 143 140 
10 3 1 0 2 2 2 141 140 
6 2 3 0 3 5 2 141 140 
9 4 2 0 3 3 1 143 
9 3 1 0 1 2 1 146 
3 3 3 0 5 3 1 146 
6 1 6 0 3 1 1 146 
7 1 2 0 4 5 1 146 
5 1 4 0 3 3 1 146 
6 1 3 0 3 1 1 146 
0 0 0 0 0 0 1 543 
0 0 0 0 0 0 7 148 150 153 154 155 156 157 
1 1 0 0 0 0 1 149 
9 4 0 0 0 0 1 151 
6 4 0 0 0 0 2 152 526 
5 1 0 0 0 0 1 158 
2 1 0 0 0 0 1 158 
1 4 0 0 0 0 1 158 
5 3 0 0 0 0 1 158 
1 3 0 0 0 0 1 158 
10 1 0 0 0 0 1 158 
10 3 0 0 0 0 1 158 
0 0 0 0 0 0 5 243 275 307 339 371 
0 0 0 0 0 0 3 160 164 166 
10 1 0 1 1 1 4 169 163 162 161 
10 6 0 3 4 1 7 188 176 174 173 172 171 168 
2 2 0 4 3 1 3 172 168 165 
6 2 0 1 1 5 6 191 176 172 171 170 167 
1 2 0 1 2 1 5 176 174 168 167 393 
10 3 0 2 3 2 4 191 176 170 167 
10 2 0 1 2 1 3 173 169 168 
1 2 0 3 1 1 8 188 183 182 181 179 178 177 173 
6 3 0 2 3 3 4 179 178 175 170 
3 2 0 5 1 6 4 188 184 182 172 
9 3 0 2 2 5 6 186 184 183 182 181 180 
2 2 0 3 2 3 6 186 183 182 181 180 178 
7 2 0 1 2 4 5 186 183 181 177 175 
3 2 0 1 4 1 3 186 184 175 
5 2 0 3 2 1 4 191 190 186 177 
10 2 0 4 2 3 3 194 185 180 
4 2 0 3 2 3 2 186 184 
6 1 0 4 4 2 2 189 185 
1 1 0 1 4 2 2 194 185 
6 3 0 3 3 3 2 189 185 
10 2 0 3 3 2 4 193 192 190 189 
7 3 0 2 5 3 4 193 192 190 189 
3 3 0 1 1 4 4 193 192 190 189 
5 3 0 4 4 3 3 199 189 187 
6 3 0 1 2 2 1 185 
2 3 0 1 3 1 2 199 187 
4 3 0 2 1 1 2 194 187 
10 4 0 1 1 5 3 198 193 192 
1 1 0 2 4 3 2 196 190 
5 1 0 3 3 1 4 198 197 196 195 
10 5 0 4 4 2 4 199 198 197 195 
5 2 0 3 1 4 1 192 
9 3 0 4 3 4 3 197 196 195 
3 2 0 2 3 2 3 197 196 195 
6 2 0 4 1 4 2 196 195 
3 4 0 2 3 4 1 200 
4 3 0 1 1 1 1 200 
2 2 0 4 4 2 1 200 
7 3 0 6 4 1 1 200 
6 3 0 2 1 2 1 200 
0 0 0 0 0 0 1 543 
0 0 0 0 0 0 3 202 203 207 
7 0 1 1 1 1 4 209 206 205 204 
2 0 3 2 2 4 4 216 215 211 208 
3 0 3 4 3 1 6 227 216 215 213 212 211 
10 0 3 4 4 2 5 222 216 212 211 210 
2 0 1 1 1 2 3 216 211 208 
4 0 1 3 3 4 3 213 211 209 
3 0 2 2 1 4 4 222 218 214 210 
2 0 1 3 2 2 7 227 225 224 222 221 218 216 
9 0 2 4 2 1 5 227 225 223 219 213 
9 0 2 3 1 2 4 225 223 217 214 
8 0 1 4 3 4 6 224 223 221 220 219 218 
10 0 3 1 1 3 6 229 228 224 221 220 217 
1 0 2 1 4 2 6 229 228 224 221 220 219 
1 0 2 1 9 1 5 226 223 222 220 218 
9 0 2 4 4 1 5 228 223 220 219 217 
3 0 2 3 2 2 3 234 230 226 
2 0 3 2 3 1 3 232 229 228 
4 0 3 3 1 3 2 230 226 
2 0 2 5 3 3 3 233 232 231 
5 0 3 3 3 1 3 233 232 231 
5 0 3 4 1 3 3 233 232 231 
5 0 2 5 2 3 2 232 230 
5 0 5 4 2 3 2 234 230 
7 0 4 3 5 2 2 232 230 
5 0 1 2 1 2 4 236 235 233 232 
7 0 3 1 2 2 4 236 235 233 232 
2 0 4 2 2 5 3 241 234 231 
1 0 2 1 3 3 1 230 
1 0 2 1 1 3 2 241 231 
2 0 5 1 3 4 3 240 236 235 
8 0 4 1 3 1 4 240 239 238 237 
10 0 1 1 2 1 4 241 240 238 237 
1 0 3 2 3 2 1 235 
6 0 1 2 3 3 3 239 238 237 
6 0 4 2 2 3 3 239 238 237 
5 0 4 2 1 3 1 242 
1 0 2 4 2 3 1 242 
3 0 4 2 5 4 2 242 514 
10 0 2 3 2 4 1 242 
7 0 2 3 2 2 1 242 
0 0 0 0 0 0 1 543 
0 0 0 0 0 0 6 244 245 246 247 250 273 
9 0 0 1 1 1 5 256 255 254 251 248 
1 0 0 3 4 3 4 272 254 251 248 
1 0 0 2 2 1 3 251 249 248 
2 0 0 1 2 2 3 257 254 248 
3 0 0 1 2 5 3 264 260 252 
8 0 0 1 4 4 4 270 256 255 253 
8 0 0 3 1 4 4 271 256 255 253 
1 0 0 4 3 1 2 264 253 
4 0 0 5 3 2 1 253 
6 0 0 7 1 2 6 269 268 267 263 259 333 
2 0 0 2 1 3 3 266 264 258 
3 0 0 1 3 2 4 268 267 266 259 
2 0 0 2 2 2 3 268 263 259 
4 0 0 1 2 1 4 269 267 266 261 
7 0 0 3 4 3 1 259 
6 0 0 1 2 1 1 261 
3 0 0 1 3 2 2 270 266 
8 0 0 5 4 5 1 262 
6 0 0 5 2 3 1 265 
7 0 0 2 3 3 1 266 
1 0 0 4 5 4 1 270 
9 0 0 5 2 2 1 274 
8 0 0 2 4 4 1 274 
1 0 0 3 3 2 1 274 
10 0 0 2 2 2 1 274 
8 0 0 2 1 3 1 274 
5 0 0 1 3 2 1 274 
10 0 0 3 2 1 1 274 
2 0 0 1 2 2 1 274 
8 0 0 1 2 3 1 274 
0 0 0 0 0 0 1 543 
0 0 0 0 0 0 6 276 277 278 279 280 291 
10 1 0 1 1 0 4 293 283 282 281 
6 1 0 2 3 0 5 293 289 287 282 281 
6 5 0 2 4 0 3 287 282 281 
1 3 0 2 5 0 3 292 283 281 
3 4 0 4 2 0 5 296 295 292 288 283 
7 3 0 5 3 0 3 288 285 284 
1 2 0 3 2 0 2 292 286 
3 2 0 3 3 0 2 289 287 
9 3 0 3 4 0 2 295 290 
3 2 0 1 3 0 2 295 290 
1 3 0 3 2 0 2 295 290 
1 1 0 3 3 0 1 290 
8 3 0 3 2 0 1 290 
7 1 0 2 3 0 1 290 
4 4 0 6 1 0 6 305 304 303 300 299 294 
9 2 0 3 1 0 4 305 300 299 297 
3 3 0 3 3 0 2 303 294 
1 2 0 1 3 0 5 305 303 302 299 499 
5 3 0 1 1 0 2 301 297 
2 5 0 1 3 0 3 304 303 301 
3 4 0 1 2 0 3 304 303 301 
5 3 0 2 2 0 1 298 
1 2 0 2 2 0 1 302 
4 2 0 3 2 0 1 301 
1 1 0 3 1 0 1 301 
5 1 0 3 2 0 1 306 
2 4 0 1 1 0 1 306 
6 1 0 1 5 0 1 306 
7 2 0 4 3 0 1 306 
4 2 0 3 3 0 1 306 
0 0 0 0 0 0 1 543 
0 0 0 0 0 0 6 308 309 310 311 312 337 
3 1 0 1 0 1 5 320 316 315 314 313 
10 3 0 4 0 3 4 336 316 315 313 
3 2 0 4 0 3 3 315 314 313 
1 3 0 2 0 2 3 320 316 313 
6 3 0 2 0 5 2 335 314 
3 1 0 2 0 3 3 328 323 317 
5 2 0 5 0 3 4 334 321 319 318 
8 1 0 4 0 1 2 328 318 
3 5 0 2 0 1 5 332 331 328 327 322 
10 1 0 2 0 2 1 318 
1 4 0 2 0 1 5 333 332 331 327 324 
2 4 0 5 0 4 5 332 331 327 324 504 
5 5 0 2 0 2 4 333 331 327 324 
10 4 0 4 0 2 4 332 331 330 324 
2 1 0 2 0 4 1 324 
6 2 0 2 0 4 3 334 333 330 
1 5 0 1 0 3 1 325 
9 3 0 2 0 2 1 326 
2 3 0 2 0 2 1 329 
10 1 0 3 0 4 1 330 
9 3 0 2 0 2 1 334 
10 2 0 1 0 3 1 338 
7 1 0 3 0 1 1 338 
10 2 0 4 0 1 1 338 
8 1 0 1 0 2 1 338 
9 3 0 2 0 3 1 338 
1 1 0 3 0 3 1 338 
8 3 0 1 0 3 1 338 
10 1 0 4 0 2 1 338 
10 4 0 1 0 3 1 338 
0 0 0 0 0 0 1 543 
0 0 0 0 0 0 6 340 341 342 343 344 369 
3 1 0 1 1 0 5 352 348 347 346 345 
1 3 0 5 2 0 5 352 349 348 346 345 
10 2 0 2 3 0 5 361 350 348 346 345 
8 2 0 3 2 0 4 355 348 347 345 
8 3 0 4 4 0 2 368 347 
7 3 0 2 4 0 2 353 351 
2 2 0 2 4 0 3 356 355 354 
6 3 0 2 2 0 2 350 349 
8 2 0 3 3 0 2 356 354 
4 1 0 1 5 0 3 364 354 396 
2 5 0 3 2 0 2 364 354 
7 1 0 1 2 0 2 364 354 
1 3 0 3 1 0 2 364 354 
9 4 0 1 3 0 4 366 360 357 356 
1 3 0 5 2 0 5 367 366 365 360 357 
5 3 0 1 2 0 3 364 363 357 
6 5 0 4 2 0 3 365 364 363 
9 1 0 3 4 0 1 358 
5 1 0 1 1 0 1 359 
3 4 0 2 2 0 1 362 
8 1 0 2 2 0 1 363 
8 5 0 3 3 0 1 364 
9 4 0 1 2 0 1 370 
3 3 0 2 3 0 1 370 
9 1 0 2 2 0 1 370 
3 3 0 4 2 0 1 370 
10 1 0 1 2 0 1 370 
5 2 0 4 2 0 1 370 
7 2 0 4 5 0 1 370 
8 1 0 3 1 0 1 370 
0 0 0 0 0 0 1 543 
0 0 0 0 0 0 3 372 374 377 
6 0 0 0 1 0 5 381 380 376 375 373 
6 0 0 0 2 0 2 379 378 
7 0 0 0 2 0 1 375 
5 0 0 0 2 0 2 378 532 
4 0 0 0 1 0 1 378 
8 0 0 0 4 0 1 378 
3 0 0 0 3 0 1 382 
2 0 0 0 2 0 1 382 
5 0 0 0 5 0 1 382 
3 0 0 0 3 0 1 382 
0 0 0 0 0 0 5 383 405 427 449 461 
0 0 0 0 0 0 5 384 385 386 388 391 
3 0 1 1 0 0 4 403 396 392 389 
2 0 1 1 0 0 3 397 392 387 
8 0 1 2 0 0 4 402 396 392 390 
6 0 4 1 0 0 3 403 402 390 
4 0 3 3 0 0 3 402 395 392 
4 0 1 2 0 0 2 402 390 
5 0 4 2 0 0 4 400 395 394 393 
3 0 4 2 0 0 6 403 402 399 398 396 412 
2 0 3 2 0 0 3 400 394 393 
7 0 4 2 0 0 2 401 398 
3 0 2 2 0 0 1 399 
7 0 2 3 0 0 1 399 
8 0 4 4 0 0 1 400 
3 0 3 6 0 0 1 398 
9 0 1 2 0 0 1 404 
5 0 4 1 0 0 1 404 
5 0 2 5 0 0 1 404 
1 0 1 4 0 0 1 404 
8 0 3 1 0 0 1 404 
10 0 2 4 0 0 1 404 
0 0 0 0 0 0 1 543 
0 0 0 0 0 0 6 406 408 410 412 417 425 
9 1 0 1 0 0 2 414 407 
9 2 0 2 0 0 4 423 422 416 409 
9 2 0 3 0 0 3 422 414 409 
1 2 0 2 0 0 3 424 418 413 
8 1 0 3 0 0 2 415 411 
8 1 0 3 0 0 3 423 419 416 
8 2 0 4 0 0 2 422 414 
7 6 0 3 0 0 3 421 420 419 
7 3 0 2 0 0 1 415 
10 2 0 2 0 0 1 418 
4 3 0 3 0 0 1 418 
8 2 0 2 0 0 2 419 492 
9 1 0 2 0 0 1 426 
4 2 0 1 0 0 1 426 
8 5 0 3 0 0 1 426 
7 1 0 3 0 0 1 426 
8 3 0 1 0 0 1 426 
3 2 0 5 0 0 1 426 
7 3 0 1 0 0 1 426 
5 6 0 4 0 0 1 426 
0 0 0 0 0 0 1 543 
0 0 0 0 0 0 7 428 430 432 434 436 440 467 
1 0 1 0 0 1 2 437 429 
2 0 4 0 0 2 3 443 439 431 
7 0 1 0 0 4 2 437 431 
2 0 2 0 0 2 4 447 444 441 435 
3 0 2 0 0 3 2 438 433 
6 0 3 0 0 1 3 443 442 439 
2 0 2 0 0 3 2 444 437 
4 0 1 0 0 1 3 446 445 442 
6 0 4 0 0 2 2 442 441 
9 0 1 0 0 3 1 438 
2 0 2 0 0 2 1 441 
3 0 4 0 0 4 1 441 
8 0 1 0 0 2 1 443 
3 0 4 0 0 4 1 448 
7 0 2 0 0 2 1 448 
3 0 2 0 0 2 1 448 
3 0 4 0 0 4 1 448 
6 0 4 0 0 1 1 448 
10 0 4 0 0 4 1 448 
4 0 2 0 0 3 1 448 
0 0 0 0 0 0 1 543 
0 0 0 0 0 0 6 450 451 452 453 455 459 
8 0 1 0 0 0 3 458 457 456 
8 0 3 0 0 0 3 458 457 456 
6 0 4 0 0 0 2 457 454 
10 0 1 0 0 0 1 454 
4 0 2 0 0 0 1 456 
9 0 2 0 0 0 1 456 
3 0 4 0 0 0 1 460 
3 0 2 0 0 0 1 460 
3 0 3 0 0 0 1 460 
7 0 3 0 0 0 1 460 
0 0 0 0 0 0 5 483 495 507 519 531 
0 0 0 0 0 0 6 462 463 464 466 467 470 
7 0 1 0 0 1 3 481 469 465 
7 0 1 0 0 5 4 479 474 469 468 
9 0 1 0 0 1 5 480 479 477 473 469 
6 0 2 0 0 3 3 480 479 468 
3 0 5 0 0 2 2 472 468 
4 0 5 0 0 2 2 479 469 
6 0 1 0 0 4 4 478 477 473 471 
6 0 3 0 0 1 3 478 472 471 
9 0 4 0 0 2 2 479 474 
1 0 5 0 0 2 1 476 
4 0 2 0 0 2 1 475 
4 0 3 0 0 2 1 475 
6 0 2 0 0 4 1 477 
7 0 1 0 0 3 1 482 
5 0 1 0 0 2 1 482 
8 0 2 0 0 2 1 482 
8 0 1 0 0 1 1 482 
3 0 3 0 0 4 1 482 
5 0 5 0 0 3 1 482 
10 0 2 0 0 4 1 482 
0 0 0 0 0 0 1 543 
0 0 0 0 0 0 7 484 485 487 490 491 492 493 
10 0 1 0 0 0 2 489 486 
8 0 3 0 0 0 1 486 
10 0 2 0 0 0 1 488 
9 0 2 0 0 0 1 488 
1 0 1 0 0 0 1 494 
4 0 3 0 0 0 1 494 
5 0 2 0 0 0 1 494 
6 0 4 0 0 0 1 494 
10 0 4 0 0 0 1 494 
1 0 3 0 0 0 1 494 
0 0 0 0 0 0 1 543 
0 0 0 0 0 0 5 496 497 499 500 501 
5 0 0 0 0 1 2 503 498 
10 0 0 0 0 5 2 503 498 
1 0 0 0 0 3 3 505 504 502 
2 0 0 0 0 2 2 503 502 
1 0 0 0 0 2 1 503 
5 0 0 0 0 3 1 502 
10 0 0 0 0 2 1 506 
7 0 0 0 0 4 1 506 
6 0 0 0 0 2 1 506 
2 0 0 0 0 1 1 506 
0 0 0 0 0 0 1 543 
0 0 0 0 0 0 3 508 509 510 
6 0 0 1 0 0 5 515 514 513 512 511 
4 0 0 2 0 0 5 515 514 513 512 511 
8 0 0 2 0 0 4 515 513 512 511 
5 0 0 2 0 0 2 517 516 
5 0 0 3 0 0 2 517 516 
9 0 0 1 0 0 2 517 516 
8 0 0 4 0 0 2 517 516 
10 0 0 3 0 0 1 516 
2 0 0 3 0 0 1 518 
6 0 0 4 0 0 1 518 
0 0 0 0 0 0 1 543 
0 0 0 0 0 0 5 520 521 523 528 529 
9 1 0 0 0 0 3 527 525 522 
2 3 0 0 0 0 2 525 524 
2 1 0 0 0 0 1 524 
3 3 0 0 0 0 1 526 
3 4 0 0 0 0 1 530 
1 3 0 0 0 0 1 530 
3 3 0 0 0 0 1 530 
2 2 0 0 0 0 1 530 
2 2 0 0 0 0 1 530 
4 3 0 0 0 0 1 530 
0 0 0 0 0 0 1 543 
0 0 0 0 0 0 5 532 533 535 540 541 
1 1 0 0 0 0 2 537 534 
3 2 0 0 0 0 2 539 536 
6 3 0 0 0 0 2 539 538 
5 3 0 0 0 0 1 536 
2 2 0 0 0 0 1 538 
7 1 0 0 0 0 1 538 
6 3 0 0 0 0 1 542 
6 2 0 0 0 0 1 542 
3 5 0 0 0 0 1 542 
6 3 0 0 0 0 1 542 
0 0 0 0 0 0 1 543 
0 0 0 0 0 0 0 
